c Problem Statistics
c Number of variables: 140
c Number of clauses: 350
c Parse time (sec.) : 0.00
c
p cnf 140 96
-139 0
-95 0
-118 0
-128 0
-105 0
-122 0
-107 0
84 0
10 0
59 0
3 0
41 0
79 0
13 0
16 0
60 0
49 0
101 0
21 0
37 0
17 0
63 0
103 0
78 0
23 0
48 0
14 0
74 0
62 0
68 0
31 0
55 0
91 0
93 0
82 0
83 0
85 0
94 0
96 0
100 0
102 0
109 0
113 0
115 0
119 0
123 0
126 0
127 0
131 0
132 0
133 0
135 0
137 0
138 0
140 0
72 0
73 0
75 0
76 0
81 0
86 0
87 0
88 0
89 0
92 0
97 0
98 0
99 0
104 0
111 0
114 0
117 0
121 0
125 0
129 0
134 0
136 0
71 0
77 0
80 0
90 0
106 0
108 0
110 0
112 0
116 0
120 0
124 0
130 0
11 51 67 61 0
22 32 34 27 0
20 4 34 27 0
19 42 43 57 0
26 70 43 0
25 34 0
44 66 0
c restarts              : 71
c conflicts             : 0              (-nan /sec)
c decisions             : 3062           (0.00 % random) (inf /sec)
c propagations          : 13616          (inf /sec)
c conflict literals     : 0              (-nan % deleted)
c CPU time (sec.): 0
